6101
6091
6115
6178
6164
6244
6164
6239
6275
6122
6243
6207
6073
6210
6191
6214
6231
6133
6188
6241
6246
6195
6173
6159
6102
6241
6152
6199
6232
6111
6253
6291
6247
6263
6269
6197
6131
6265
6196
6218
6189
6160
6215
6220
6078
6162
6196
6286
6110
6168
6203
6218
6151
6165
6116
6146
6116
6251
6128
6283
6222
6207
6158
6161
6173
6200
6230
6207
6126
6121
6083
6273
6214
6196
6127
6224
6166
6201
6123
6269
6149
6266
6116
6171
6223
6209
6177
6168
6319
6141
6194
6283
6171
6232
6250
6139
6117
6175
6255
6131
